c Output_time 26.03.2020 18:15:21_+0100 1585242921526268330
c ** Program information **
c program_name                          "QBRG_debug"
c version                               "0.3.20"
c date                                  "25.3.2020"
c gid_id                                "673970833836058123f633335630c185360d632e"
c author                                "Oliver Kullmann"
c url                                   "https://github.com/OKullmann/oklibrary/blob/master/Satisfiability/Transformers/Generators/Random/QBRG.cpp"
c ** Machine information **
c machine_name                          "chyna-Lenovo-G50-70"
c bogomips                              3791.08
c ** Compilation information **
c compiler_version                      "g++ 7.5.0"
c compilation_date                      "Mar_26_2020 11:16:30"
c compilation_options                   "--std=c++17 -pedantic -fmax-errors=5 -Wall -Wextra -g -D_GLIBCXX_DEBUG"
c NDEBUG                                0
c OPTIMIZE                              0
c ** Parameters **
c command-line                          "./QBRG_debug" "a40 e40 a40 40" "452*1,1|2-2,1|3-3,1|4-4,1" "" "1,t" ""
c output                                "QuBlRaGe_160_452_1585242921526088851.qdimacs"
c options                               "filtered,renamed"
c num_quantifier_blocks                 4
c  quantifier_blocks                    1:a1-40 2:e41-80 3:a81-120 4:e121-160
c num_clause-blocks                     1
c  clause-blocks                        452 * {1-40,1,1/2} | {41-80,1,1/2} | {81-120,1,1/2} | {121-160,1,1/2}
c num_e-seeds                           37+2=39
c  e-seeds                              1 0 1 0 5 160 2 40 0 40 1 40 0 40 1 452 4 1 1 1 1 2 2 2 1 1 2 3 3 1 1 2 4 4 1 1 2 1 1585242921526088027
p cnf 160 452
a 1 2 3 4 5 6 7 8 9 10 11 12 13 14 15 16 17 18 19 20 21 22 23 24 25 26 27 28 29 30 31 32 33 34 35 36 37 38 39 40 0
e 41 42 43 44 45 46 47 48 49 50 51 52 53 54 55 56 57 58 59 60 61 62 63 64 65 66 67 68 69 70 71 72 73 74 75 76 77 78 79 80 0
a 81 82 83 84 85 86 87 88 89 90 91 92 93 94 95 96 97 98 99 100 101 102 103 104 105 106 107 108 109 110 111 112 113 114 115 116 117 118 119 120 0
e 121 122 123 124 125 126 127 128 129 130 131 132 133 134 135 136 137 138 139 140 141 142 143 144 145 146 147 148 149 150 151 152 153 154 155 156 157 158 159 160 0
-28 -69 83 -121 0
14 70 -102 -121 0
13 -48 -104 -121 0
-35 -64 -109 -121 0
24 47 -111 -121 0
35 -64 114 -121 0
30 -78 117 -121 0
20 59 118 -121 0
25 -67 -85 121 0
18 51 88 121 0
-23 -51 95 121 0
38 57 103 121 0
30 44 -81 -122 0
6 -65 -81 -122 0
11 -42 90 -122 0
-23 60 103 -122 0
-11 63 103 -122 0
11 -41 -110 -122 0
-21 41 117 -122 0
3 56 -91 122 0
-32 -74 -94 122 0
-12 -60 -107 122 0
-8 45 -118 122 0
-25 43 -87 -123 0
29 59 -112 -123 0
-37 80 84 123 0
-25 80 87 123 0
-33 -80 -92 123 0
-24 -56 116 123 0
3 -74 -81 -124 0
-15 73 84 -124 0
-5 78 90 -124 0
-7 -80 101 -124 0
-12 58 -106 -124 0
21 -75 -118 -124 0
-6 -52 -82 124 0
38 65 82 124 0
15 54 97 124 0
32 -56 -106 124 0
-11 54 106 124 0
-30 65 -107 124 0
1 -41 119 124 0
-20 -52 83 -125 0
-21 60 89 -125 0
-31 66 89 -125 0
40 77 90 -125 0
-1 -43 -111 -125 0
40 77 117 -125 0
18 -71 -118 -125 0
1 52 -88 125 0
5 65 96 125 0
25 -76 97 125 0
-18 -64 100 125 0
19 60 -106 125 0
-30 72 -106 125 0
17 44 -91 -126 0
-40 -74 93 -126 0
25 60 -108 -126 0
40 45 111 -126 0
16 66 -114 -126 0
40 -51 106 126 0
5 65 106 126 0
26 53 -97 -127 0
-28 74 87 127 0
-16 -65 94 127 0
9 -48 99 127 0
32 -55 -106 127 0
9 53 -108 127 0
-21 -73 -120 127 0
24 -44 120 127 0
3 50 84 -128 0
38 70 -97 -128 0
29 58 -120 -128 0
-14 -76 83 128 0
35 -59 -90 128 0
-4 79 -95 128 0
-35 69 103 128 0
-24 -63 104 128 0
7 61 110 128 0
17 67 -112 128 0
-12 -72 -115 128 0
28 80 -84 -129 0
18 46 -92 -129 0
-33 -50 -101 -129 0
28 -74 -109 -129 0
-18 -64 113 -129 0
-18 54 114 -129 0
-7 44 85 129 0
-35 55 -91 129 0
39 68 -95 129 0
20 55 -85 -130 0
19 -55 93 -130 0
9 -46 96 -130 0
4 -74 -103 -130 0
-21 -67 105 -130 0
-7 60 -111 -130 0
5 43 83 130 0
13 -71 95 130 0
-4 -57 -112 130 0
-24 -42 -113 130 0
25 -74 -90 -131 0
-33 54 93 -131 0
5 -72 106 -131 0
-30 -47 110 -131 0
-24 -55 113 -131 0
-37 -68 119 -131 0
15 51 83 131 0
-14 43 -89 131 0
7 -65 -92 131 0
-23 -58 93 131 0
-33 55 -99 131 0
-28 59 -99 131 0
26 62 -104 131 0
-19 -65 -106 131 0
-37 -76 -111 131 0
-12 -79 81 -132 0
33 56 84 -132 0
18 70 104 -132 0
28 50 120 -132 0
-5 72 -82 132 0
-14 -52 87 132 0
39 -51 89 132 0
17 -46 -113 132 0
-32 -58 -118 132 0
-18 63 -118 132 0
-21 -52 119 132 0
-27 -79 97 -133 0
-36 64 -105 -133 0
6 -71 -111 -133 0
-39 -56 -84 133 0
30 74 94 133 0
-30 75 -112 133 0
-13 51 114 133 0
-12 -45 119 133 0
34 51 119 133 0
32 -53 103 -134 0
31 -59 107 -134 0
-11 57 115 -134 0
-4 44 -118 -134 0
-26 -42 81 134 0
26 -69 84 134 0
31 -57 85 134 0
13 -50 106 134 0
-16 -56 -115 134 0
28 64 -115 134 0
24 -41 -84 -135 0
-11 -49 -90 -135 0
12 -79 -94 -135 0
23 70 -109 -135 0
-8 -56 112 -135 0
-2 -55 105 135 0
-14 56 106 135 0
8 46 -120 135 0
-38 -59 -81 -136 0
-16 65 -84 -136 0
-28 66 -90 -136 0
-15 -41 -105 -136 0
-37 78 -112 -136 0
-2 -64 -118 -136 0
12 70 84 136 0
1 -76 97 136 0
15 -75 -116 136 0
-38 43 117 136 0
-19 63 -119 136 0
-5 61 120 136 0
16 -67 -92 -137 0
-9 -46 104 -137 0
-22 55 113 -137 0
35 -48 119 -137 0
-26 45 120 -137 0
-17 78 -84 137 0
12 44 87 137 0
36 -66 -98 137 0
-14 -64 111 137 0
29 -51 113 137 0
-19 -53 -116 137 0
15 80 -120 137 0
4 -68 85 -138 0
30 53 -92 -138 0
30 -68 -100 -138 0
-37 -49 104 -138 0
-15 -52 -112 -138 0
-24 50 -118 -138 0
26 49 -82 138 0
-11 -77 99 138 0
19 -72 -103 138 0
-34 74 103 138 0
-9 61 113 138 0
-32 43 90 -139 0
-13 -54 -107 -139 0
-18 -79 113 -139 0
5 52 82 139 0
-20 -65 -83 139 0
-7 69 -83 139 0
5 -59 -103 139 0
36 -47 -117 139 0
-30 -62 -120 139 0
-8 -44 -87 -140 0
-25 -51 -96 -140 0
-6 47 99 -140 0
-14 80 -105 -140 0
21 56 105 -140 0
2 -67 -106 -140 0
16 64 -107 -140 0
19 -51 -108 -140 0
-1 47 -115 -140 0
-11 -56 -83 140 0
-29 -45 -91 140 0
-27 -63 91 140 0
15 -70 118 140 0
33 63 -81 -141 0
-16 48 -84 -141 0
-36 -72 -94 -141 0
-30 58 -106 -141 0
18 80 -109 -141 0
-26 -44 -115 -141 0
14 -65 116 -141 0
31 -51 118 -141 0
8 -43 81 141 0
13 -61 -85 141 0
-38 -69 97 141 0
-3 70 97 141 0
-29 -49 100 141 0
-39 72 106 141 0
-26 57 111 141 0
-12 -65 117 141 0
33 -75 81 -142 0
-21 49 -82 -142 0
-6 -63 84 -142 0
4 -44 85 -142 0
-15 -50 89 -142 0
-34 -48 99 -142 0
-31 -44 -106 -142 0
-32 -65 106 -142 0
-29 58 -117 -142 0
-35 80 -120 -142 0
3 72 -94 142 0
33 -72 -98 142 0
-29 -74 -102 142 0
-21 62 -103 142 0
-23 -79 -89 -143 0
-33 -71 90 -143 0
16 -56 106 -143 0
1 -61 -110 -143 0
28 77 119 -143 0
5 -69 92 143 0
19 56 95 143 0
27 -61 -98 143 0
19 -44 98 143 0
-25 -42 -100 143 0
-35 56 104 143 0
-39 70 -105 143 0
8 56 -109 143 0
-20 62 117 143 0
-22 -50 116 -144 0
2 -50 95 144 0
14 74 -101 144 0
-7 80 111 144 0
22 74 -112 144 0
2 60 113 144 0
36 -54 -81 -145 0
36 -76 -86 -145 0
26 65 -89 -145 0
-1 -71 103 -145 0
2 -46 -105 -145 0
15 -73 105 -145 0
-14 -77 106 -145 0
13 -68 -107 -145 0
33 64 113 -145 0
38 59 118 -145 0
15 44 83 145 0
21 -58 -95 145 0
-34 41 -99 145 0
25 -42 -99 145 0
25 -69 100 145 0
-31 43 105 145 0
-4 74 110 145 0
-26 67 111 145 0
32 -71 120 145 0
-39 63 -83 -146 0
-6 -56 83 -146 0
-36 -52 86 -146 0
-1 43 -89 -146 0
25 75 -100 -146 0
18 -56 -106 -146 0
19 -55 -111 -146 0
1 58 -119 -146 0
8 51 -120 -146 0
21 64 90 146 0
38 -63 -96 146 0
31 -65 98 146 0
3 52 102 146 0
-29 48 105 146 0
14 70 111 146 0
19 42 -118 146 0
39 41 -85 -147 0
22 74 -87 -147 0
27 56 90 -147 0
9 -77 -100 -147 0
-35 -47 -107 -147 0
18 65 -112 -147 0
-4 41 87 147 0
-5 75 -90 147 0
22 -71 93 147 0
-28 60 -95 147 0
24 46 98 147 0
10 56 -105 147 0
-4 -41 -82 -148 0
-21 61 84 -148 0
13 51 -89 -148 0
9 53 89 -148 0
-4 47 -102 -148 0
14 48 104 -148 0
-13 -50 108 -148 0
13 -74 -109 -148 0
-40 -49 -119 -148 0
9 -70 119 -148 0
-31 -74 85 148 0
26 -48 87 148 0
26 -72 88 148 0
16 71 -100 148 0
20 62 101 148 0
25 -45 -110 148 0
-39 52 -111 148 0
1 -61 -115 148 0
-8 56 -119 148 0
-9 -58 119 148 0
-24 -72 119 148 0
-37 75 -81 -149 0
3 70 -88 -149 0
39 71 -97 -149 0
-30 -54 103 -149 0
4 -70 112 -149 0
12 -41 -89 149 0
26 -66 93 149 0
1 -60 -97 149 0
-38 -63 -102 149 0
-8 51 109 149 0
32 71 -84 -150 0
-24 -71 86 -150 0
-21 -61 102 -150 0
36 55 -107 -150 0
-14 -64 -109 -150 0
-15 -80 -118 -150 0
18 -57 -119 -150 0
-27 -59 119 -150 0
7 -80 81 150 0
20 64 -82 150 0
-16 -52 -85 150 0
15 -78 -109 150 0
16 42 116 150 0
26 47 -118 150 0
-39 69 -84 -151 0
-3 -51 -92 -151 0
-30 56 -110 -151 0
-24 61 86 151 0
12 64 -88 151 0
-3 -58 -100 151 0
40 62 -105 151 0
-19 77 -105 151 0
2 -60 -113 151 0
35 47 83 -152 0
23 -75 85 -152 0
32 -64 -94 -152 0
19 -56 99 -152 0
25 -46 106 -152 0
12 66 -110 -152 0
-40 -54 112 -152 0
33 51 -82 152 0
-10 63 111 152 0
-24 -47 -112 152 0
-19 79 -82 -153 0
25 55 115 -153 0
-27 -77 119 -153 0
17 70 -82 153 0
-26 -60 -85 153 0
-37 66 85 153 0
-20 43 -96 153 0
5 -55 109 153 0
-16 80 -112 153 0
9 62 92 -154 0
36 77 92 -154 0
13 47 -110 -154 0
8 -66 -120 -154 0
32 -45 -86 154 0
-22 -45 97 154 0
3 -42 -112 154 0
-28 56 113 154 0
-36 -71 -116 154 0
18 70 116 154 0
-18 -80 -82 -155 0
13 79 82 -155 0
-5 73 -94 -155 0
-16 -79 -94 -155 0
22 -55 101 -155 0
-27 65 -107 -155 0
21 -62 120 -155 0
-21 72 94 155 0
-38 -58 95 155 0
21 -48 96 155 0
8 63 -103 155 0
5 67 107 155 0
-34 -42 111 155 0
31 -71 111 155 0
-36 -80 -115 155 0
6 -44 -118 155 0
22 -44 118 155 0
-22 47 89 -156 0
-29 -55 -91 -156 0
-29 -61 92 -156 0
-26 66 -96 -156 0
-1 78 -96 -156 0
29 -62 -102 -156 0
-21 74 104 -156 0
-18 63 -114 -156 0
-25 -70 -114 -156 0
-23 45 84 -157 0
3 67 86 -157 0
-14 -50 -95 -157 0
-37 -44 95 -157 0
24 59 107 -157 0
-29 -65 86 157 0
-27 58 -95 157 0
22 49 96 157 0
25 65 111 157 0
31 41 -118 157 0
17 51 106 -158 0
40 -74 107 -158 0
-19 -57 117 -158 0
-37 72 81 158 0
10 47 100 158 0
-14 65 -85 -159 0
-12 54 -88 -159 0
-19 -79 114 -159 0
26 -60 97 159 0
14 -57 99 159 0
14 56 -104 159 0
7 -68 -111 159 0
-3 80 -83 -160 0
-6 -68 99 -160 0
14 78 111 -160 0
1 74 -114 -160 0
31 61 119 -160 0
4 -67 92 160 0
27 -43 -94 160 0
1 77 -99 160 0
36 -45 -100 160 0
-32 69 -103 160 0
28 -77 106 160 0
1 59 -109 160 0
3 -51 113 160 0
17 -64 119 160 0
